Version identifier: 22.1.0.0 | 2022-03-09 | 1a383f8ce
CPXPARAM_Read_DataCheck                          1
Tried aggregator 3 times.
MIP Presolve eliminated 2022 rows and 575 columns.
MIP Presolve modified 61 coefficients.
Aggregator did 1537 substitutions.
Reduced MIP has 536 rows, 1638 columns, and 3789 nonzeros.
Reduced MIP has 1628 binaries, 10 generals, 0 SOSs, and 0 indicators.
Presolve time = 0.01 sec. (11.02 ticks)
Probing fixed 13 vars, tightened 0 bounds.
Probing time = 0.00 sec. (2.78 ticks)
Tried aggregator 2 times.
Detecting symmetries...
MIP Presolve eliminated 12 rows and 77 columns.
Aggregator did 10 substitutions.
Reduced MIP has 514 rows, 1551 columns, and 3588 nonzeros.
Reduced MIP has 1541 binaries, 10 generals, 0 SOSs, and 0 indicators.
Presolve time = 0.01 sec. (4.60 ticks)
Probing fixed 1 vars, tightened 0 bounds.
Probing time = 0.00 sec. (1.20 ticks)
Clique table members: 3339.
MIP emphasis: balance optimality and feasibility.
MIP search method: dynamic search.
Parallel mode: deterministic, using up to 8 threads.
Root relaxation solution time = 0.04 sec. (6.57 ticks)

        Nodes                                         Cuts/
   Node  Left     Objective  IInf  Best Integer    Best Bound    ItCnt     Gap

      0     0       10.3205   317                     10.3205      406         
      0     0       14.0000   231                    Cuts: 59      730         
*     0+    0                           15.0000       14.0000             6.67%
      0     0       14.0000   239       15.0000      Cuts: 37      856    6.67%

Repeating presolve.
Tried aggregator 3 times.
MIP Presolve eliminated 124 rows and 991 columns.
MIP Presolve modified 3 coefficients.
Aggregator did 83 substitutions.
Reduced MIP has 307 rows, 477 columns, and 1268 nonzeros.
Reduced MIP has 477 binaries, 0 generals, 0 SOSs, and 0 indicators.
Presolve time = 0.00 sec. (3.43 ticks)
Represolve time = 0.01 sec. (5.43 ticks)

Root node processing (before b&c):
  Real time             =    0.39 sec. (189.08 ticks)
Parallel b&c, 8 threads:
  Real time             =    0.00 sec. (0.00 ticks)
  Sync time (average)   =    0.00 sec.
  Wait time (average)   =    0.00 sec.
                          ------------
Total (root+branch&cut) =    0.39 sec. (189.08 ticks)
